8
0, 333, 113, 702, 165, 442, 481, 637
333, 0, 398, 413, 242, 618, 290, 467
113, 398, 0, 792, 171, 532, 585, 610
702, 413, 792, 0, 652, 779, 263, 747
165, 242, 171, 652, 0, 589, 481, 471
442, 618, 532, 779, 589, 0, 519, 1044
481, 290, 585, 263, 481, 519, 0, 741
637, 467, 610, 747, 471, 1044, 741, 0
